
Gurobi 9.1.2 (mac64, C++) logging started Mon Jan  3 03:19:50 2022


Gurobi 9.1.2 (mac64, C++) logging started Mon Jan  3 03:25:09 2022


Gurobi 9.1.2 (mac64, C++) logging started Mon Jan  3 03:27:18 2022


Gurobi 9.1.2 (mac64, C++) logging started Mon Jan  3 03:28:55 2022


Gurobi 9.1.2 (mac64, C++) logging started Mon Jan  3 03:37:49 2022


Gurobi 9.1.2 (mac64, C++) logging started Mon Jan  3 03:41:37 2022


Gurobi 9.1.2 (mac64, C++) logging started Mon Jan  3 04:40:33 2022


Gurobi 9.1.2 (mac64, C++) logging started Mon Jan  3 04:51:26 2022


Gurobi 9.1.2 (mac64, C++) logging started Mon Jan  3 04:58:36 2022


Gurobi 9.1.2 (mac64, C++) logging started Mon Jan  3 04:59:00 2022


Gurobi 9.1.2 (mac64, C++) logging started Mon Jan  3 05:02:29 2022


Gurobi 9.1.2 (mac64, C++) logging started Mon Jan  3 05:04:02 2022


Gurobi 9.1.2 (mac64, C++) logging started Mon Jan  3 05:05:51 2022


Gurobi 9.1.2 (mac64, C++) logging started Mon Jan  3 05:06:39 2022


Gurobi 9.1.2 (mac64, C++) logging started Mon Jan  3 05:09:02 2022


Gurobi 9.1.2 (mac64, C++) logging started Mon Jan  3 05:09:27 2022


Gurobi 9.1.2 (mac64, C++) logging started Mon Jan  3 05:23:07 2022


Gurobi 9.1.2 (mac64, C++) logging started Mon Jan  3 05:28:57 2022


Gurobi 9.1.2 (mac64, C++) logging started Mon Jan  3 05:45:16 2022


Gurobi 9.1.2 (mac64, C++) logging started Mon Jan  3 05:47:17 2022


Gurobi 9.1.2 (mac64, C++) logging started Mon Jan  3 05:50:08 2022


Gurobi 9.1.2 (mac64, C++) logging started Mon Jan  3 06:32:36 2022


Gurobi 9.1.2 (mac64, C++) logging started Mon Jan  3 06:48:35 2022


Gurobi 9.1.2 (mac64, C++) logging started Mon Jan  3 06:51:08 2022


Gurobi 9.1.2 (mac64, C++) logging started Mon Jan  3 07:30:53 2022


Gurobi 9.1.2 (mac64, C++) logging started Mon Jan  3 07:31:11 2022


Gurobi 9.1.2 (mac64, C++) logging started Mon Jan  3 07:33:23 2022


Gurobi 9.1.2 (mac64, C++) logging started Mon Jan  3 07:33:39 2022


Gurobi 9.1.2 (mac64, C++) logging started Mon Jan  3 07:34:00 2022


Gurobi 9.1.2 (mac64, C++) logging started Mon Jan  3 07:37:06 2022


Gurobi 9.1.2 (mac64, C++) logging started Mon Jan  3 07:38:34 2022


Gurobi 9.1.2 (mac64, C++) logging started Mon Jan  3 07:40:35 2022


Gurobi 9.1.2 (mac64, C++) logging started Mon Jan  3 09:24:38 2022


Gurobi 9.1.2 (mac64, C++) logging started Mon Jan  3 09:27:09 2022


Gurobi 9.1.2 (mac64, C++) logging started Mon Jan  3 09:33:56 2022


Gurobi 9.1.2 (mac64, C++) logging started Mon Jan  3 09:34:47 2022


Gurobi 9.1.2 (mac64, C++) logging started Mon Jan  3 09:38:41 2022


Gurobi 9.1.2 (mac64, C++) logging started Mon Jan  3 09:40:35 2022


Gurobi 9.1.2 (mac64, C++) logging started Mon Jan  3 09:47:40 2022


Gurobi 9.1.2 (mac64, C++) logging started Mon Jan  3 15:05:46 2022


Gurobi 9.1.2 (mac64, C++) logging started Mon Jan  3 15:20:14 2022


Gurobi 9.1.2 (mac64, C++) logging started Mon Jan  3 15:21:08 2022


Gurobi 9.1.2 (mac64, C++) logging started Sun Jan 16 22:41:30 2022


Gurobi 9.1.2 (mac64, C++) logging started Mon Jan 17 06:53:34 2022


Gurobi 9.1.2 (mac64, C++) logging started Mon Jan 17 06:54:44 2022


Gurobi 9.1.2 (mac64, C++) logging started Mon Jan 17 06:55:36 2022


Gurobi 9.1.2 (mac64, C++) logging started Mon Jan 17 06:57:42 2022


Gurobi 9.1.2 (mac64, C++) logging started Mon Jan 17 06:58:31 2022


Gurobi 9.1.2 (mac64, C++) logging started Mon Jan 17 06:59:06 2022


Gurobi 9.1.2 (mac64, C++) logging started Mon Jan 17 07:02:00 2022


Gurobi 9.1.2 (mac64, C++) logging started Mon Jan 17 07:02:40 2022


Gurobi 9.1.2 (mac64, C++) logging started Mon Jan 17 07:04:16 2022


Gurobi 9.1.2 (mac64, C++) logging started Mon Jan 17 13:42:17 2022


Gurobi 9.1.2 (mac64, C++) logging started Mon Jan 17 13:42:54 2022


Gurobi 9.1.2 (mac64, C++) logging started Mon Jan 17 13:42:56 2022


Gurobi 9.1.2 (mac64, C++) logging started Mon Jan 17 13:43:50 2022


Gurobi 9.1.2 (mac64, C++) logging started Mon Jan 17 13:43:52 2022


Gurobi 9.1.2 (mac64, C++) logging started Mon Jan 17 13:44:05 2022


Gurobi 9.1.2 (mac64, C++) logging started Mon Jan 17 13:44:07 2022


Gurobi 9.1.2 (mac64, C++) logging started Mon Jan 17 13:45:12 2022


Gurobi 9.1.2 (mac64, C++) logging started Mon Jan 17 13:45:14 2022


Gurobi 9.1.2 (mac64, C++) logging started Mon Jan 17 13:45:27 2022


Gurobi 9.1.2 (mac64, C++) logging started Mon Jan 17 13:45:29 2022


Gurobi 9.1.2 (mac64, C++) logging started Mon Jan 17 13:46:31 2022


Gurobi 9.1.2 (mac64, C++) logging started Mon Jan 17 13:46:33 2022


Gurobi 9.1.2 (mac64, C++) logging started Mon Jan 17 13:47:24 2022


Gurobi 9.1.2 (mac64, C++) logging started Mon Jan 17 13:47:27 2022


Gurobi 9.1.2 (mac64, C++) logging started Mon Jan 17 13:48:30 2022


Gurobi 9.1.2 (mac64, C++) logging started Mon Jan 17 13:48:32 2022


Gurobi 9.1.2 (mac64, C++) logging started Mon Jan 17 13:48:40 2022


Gurobi 9.1.2 (mac64, C++) logging started Mon Jan 17 13:48:42 2022


Gurobi 9.1.2 (mac64, C++) logging started Mon Jan 17 13:48:53 2022


Gurobi 9.1.2 (mac64, C++) logging started Mon Jan 17 13:48:55 2022


Gurobi 9.1.2 (mac64, C++) logging started Mon Jan 17 13:49:53 2022


Gurobi 9.1.2 (mac64, C++) logging started Mon Jan 17 13:49:55 2022


Gurobi 9.1.2 (mac64, C++) logging started Mon Jan 17 13:50:39 2022


Gurobi 9.1.2 (mac64, C++) logging started Mon Jan 17 13:50:41 2022


Gurobi 9.1.2 (mac64, C++) logging started Mon Jan 17 13:51:43 2022


Gurobi 9.1.2 (mac64, C++) logging started Mon Jan 17 13:51:45 2022


Gurobi 9.1.2 (mac64, C++) logging started Mon Jan 17 13:52:28 2022


Gurobi 9.1.2 (mac64, C++) logging started Mon Jan 17 13:52:30 2022


Gurobi 9.1.2 (mac64, C++) logging started Mon Jan 17 13:53:29 2022


Gurobi 9.1.2 (mac64, C++) logging started Mon Jan 17 13:53:31 2022


Gurobi 9.1.2 (mac64, C++) logging started Mon Jan 17 13:54:18 2022


Gurobi 9.1.2 (mac64, C++) logging started Mon Jan 17 13:54:20 2022


Gurobi 9.1.2 (mac64, C++) logging started Mon Jan 17 13:55:19 2022


Gurobi 9.1.2 (mac64, C++) logging started Mon Jan 17 13:55:21 2022


Gurobi 9.1.2 (mac64, C++) logging started Mon Jan 17 13:56:20 2022


Gurobi 9.1.2 (mac64, C++) logging started Mon Jan 17 13:56:22 2022


Gurobi 9.1.2 (mac64, C++) logging started Mon Jan 17 13:56:35 2022


Gurobi 9.1.2 (mac64, C++) logging started Mon Jan 17 13:56:38 2022


Gurobi 9.1.2 (mac64, C++) logging started Mon Jan 17 13:57:26 2022


Gurobi 9.1.2 (mac64, C++) logging started Mon Jan 17 13:57:28 2022


Gurobi 9.1.2 (mac64, C++) logging started Mon Jan 17 13:58:14 2022


Gurobi 9.1.2 (mac64, C++) logging started Mon Jan 17 13:58:16 2022


Gurobi 9.1.2 (mac64, C++) logging started Mon Jan 17 13:59:00 2022


Gurobi 9.1.2 (mac64, C++) logging started Mon Jan 17 13:59:02 2022


Gurobi 9.1.2 (mac64, C++) logging started Mon Jan 17 13:59:46 2022


Gurobi 9.1.2 (mac64, C++) logging started Mon Jan 17 13:59:48 2022


Gurobi 9.1.2 (mac64, C++) logging started Mon Jan 17 14:00:34 2022


Gurobi 9.1.2 (mac64, C++) logging started Mon Jan 17 14:00:36 2022


Gurobi 9.1.2 (mac64, C++) logging started Mon Jan 17 14:00:44 2022


Gurobi 9.1.2 (mac64, C++) logging started Mon Jan 17 14:00:46 2022


Gurobi 9.1.2 (mac64, C++) logging started Mon Jan 17 14:01:32 2022


Gurobi 9.1.2 (mac64, C++) logging started Mon Jan 17 14:01:34 2022


Gurobi 9.1.2 (mac64, C++) logging started Mon Jan 17 14:02:21 2022


Gurobi 9.1.2 (mac64, C++) logging started Mon Jan 17 14:02:23 2022


Gurobi 9.1.2 (mac64, C++) logging started Mon Jan 17 14:02:41 2022


Gurobi 9.1.2 (mac64, C++) logging started Mon Jan 17 14:02:43 2022


Gurobi 9.1.2 (mac64, C++) logging started Mon Jan 17 14:02:57 2022


Gurobi 9.1.2 (mac64, C++) logging started Mon Jan 17 14:02:59 2022


Gurobi 9.1.2 (mac64, C++) logging started Mon Jan 17 14:03:26 2022


Gurobi 9.1.2 (mac64, C++) logging started Mon Jan 17 14:03:28 2022


Gurobi 9.1.2 (mac64, C++) logging started Mon Jan 17 14:03:33 2022


Gurobi 9.1.2 (mac64, C++) logging started Mon Jan 17 14:03:35 2022


Gurobi 9.1.2 (mac64, C++) logging started Mon Jan 17 14:04:22 2022


Gurobi 9.1.2 (mac64, C++) logging started Mon Jan 17 14:04:24 2022


Gurobi 9.1.2 (mac64, C++) logging started Mon Jan 17 14:05:11 2022


Gurobi 9.1.2 (mac64, C++) logging started Mon Jan 17 14:05:13 2022


Gurobi 9.1.2 (mac64, C++) logging started Mon Jan 17 14:06:05 2022


Gurobi 9.1.2 (mac64, C++) logging started Mon Jan 17 14:06:07 2022


Gurobi 9.1.2 (mac64, C++) logging started Mon Jan 17 14:07:10 2022


Gurobi 9.1.2 (mac64, C++) logging started Mon Jan 17 14:07:12 2022


Gurobi 9.1.2 (mac64, C++) logging started Mon Jan 17 14:08:00 2022


Gurobi 9.1.2 (mac64, C++) logging started Mon Jan 17 14:08:02 2022


Gurobi 9.1.2 (mac64, C++) logging started Mon Jan 17 14:08:10 2022


Gurobi 9.1.2 (mac64, C++) logging started Mon Jan 17 14:08:12 2022


Gurobi 9.1.2 (mac64, C++) logging started Mon Jan 17 14:08:16 2022


Gurobi 9.1.2 (mac64, C++) logging started Mon Jan 17 14:08:18 2022


Gurobi 9.1.2 (mac64, C++) logging started Mon Jan 17 14:09:21 2022


Gurobi 9.1.2 (mac64, C++) logging started Mon Jan 17 14:09:23 2022


Gurobi 9.1.2 (mac64, C++) logging started Mon Jan 17 14:10:20 2022


Gurobi 9.1.2 (mac64, C++) logging started Mon Jan 17 14:10:22 2022


Gurobi 9.1.2 (mac64, C++) logging started Mon Jan 17 14:10:32 2022


Gurobi 9.1.2 (mac64, C++) logging started Mon Jan 17 14:10:34 2022


Gurobi 9.1.2 (mac64, C++) logging started Mon Jan 17 14:10:39 2022


Gurobi 9.1.2 (mac64, C++) logging started Mon Jan 17 14:10:41 2022


Gurobi 9.1.2 (mac64, C++) logging started Mon Jan 17 14:10:45 2022


Gurobi 9.1.2 (mac64, C++) logging started Mon Jan 17 14:10:47 2022


Gurobi 9.1.2 (mac64, C++) logging started Mon Jan 17 14:10:59 2022


Gurobi 9.1.2 (mac64, C++) logging started Mon Jan 17 14:11:02 2022


Gurobi 9.1.2 (mac64, C++) logging started Mon Jan 17 14:11:12 2022


Gurobi 9.1.2 (mac64, C++) logging started Mon Jan 17 14:11:14 2022


Gurobi 9.1.2 (mac64, C++) logging started Mon Jan 17 14:11:26 2022


Gurobi 9.1.2 (mac64, C++) logging started Mon Jan 17 14:11:28 2022


Gurobi 9.1.2 (mac64, C++) logging started Mon Jan 17 14:11:45 2022


Gurobi 9.1.2 (mac64, C++) logging started Mon Jan 17 14:11:47 2022


Gurobi 9.1.2 (mac64, C++) logging started Mon Jan 17 14:11:59 2022


Gurobi 9.1.2 (mac64, C++) logging started Mon Jan 17 14:12:01 2022


Gurobi 9.1.2 (mac64, C++) logging started Mon Jan 17 14:12:51 2022


Gurobi 9.1.2 (mac64, C++) logging started Mon Jan 17 14:12:53 2022


Gurobi 9.1.2 (mac64, C++) logging started Mon Jan 17 14:13:36 2022


Gurobi 9.1.2 (mac64, C++) logging started Mon Jan 17 14:13:37 2022


Gurobi 9.1.2 (mac64, C++) logging started Mon Jan 17 14:13:40 2022


Gurobi 9.1.2 (mac64, C++) logging started Mon Jan 17 14:13:43 2022


Gurobi 9.1.2 (mac64, C++) logging started Mon Jan 17 14:13:45 2022


Gurobi 9.1.2 (mac64, C++) logging started Mon Jan 17 14:13:47 2022


Gurobi 9.1.2 (mac64, C++) logging started Mon Jan 17 14:13:49 2022


Gurobi 9.1.2 (mac64, C++) logging started Mon Jan 17 14:13:51 2022


Gurobi 9.1.2 (mac64, C++) logging started Mon Jan 17 14:13:52 2022


Gurobi 9.1.2 (mac64, C++) logging started Mon Jan 17 14:13:54 2022


Gurobi 9.1.2 (mac64, C++) logging started Mon Jan 17 14:13:56 2022


Gurobi 9.1.2 (mac64, C++) logging started Mon Jan 17 14:13:58 2022


Gurobi 9.1.2 (mac64, C++) logging started Mon Jan 17 14:13:59 2022


Gurobi 9.1.2 (mac64, C++) logging started Mon Jan 17 14:14:01 2022


Gurobi 9.1.2 (mac64, C++) logging started Mon Jan 17 14:14:04 2022


Gurobi 9.1.2 (mac64, C++) logging started Mon Jan 17 14:14:06 2022


Gurobi 9.1.2 (mac64, C++) logging started Mon Jan 17 14:14:08 2022


Gurobi 9.1.2 (mac64, C++) logging started Mon Jan 17 14:14:11 2022


Gurobi 9.1.2 (mac64, C++) logging started Mon Jan 17 14:14:13 2022


Gurobi 9.1.2 (mac64, C++) logging started Mon Jan 17 14:14:15 2022


Gurobi 9.1.2 (mac64, C++) logging started Mon Jan 17 14:14:16 2022


Gurobi 9.1.2 (mac64, C++) logging started Mon Jan 17 14:14:18 2022


Gurobi 9.1.2 (mac64, C++) logging started Mon Jan 17 14:14:37 2022


Gurobi 9.1.2 (mac64, C++) logging started Mon Jan 17 14:14:38 2022


Gurobi 9.1.2 (mac64, C++) logging started Mon Jan 17 14:14:47 2022


Gurobi 9.1.2 (mac64, C++) logging started Mon Jan 17 14:14:48 2022


Gurobi 9.1.2 (mac64, C++) logging started Mon Jan 17 14:32:00 2022


Gurobi 9.1.2 (mac64, C++) logging started Mon Jan 17 14:32:02 2022


Gurobi 9.1.2 (mac64, C++) logging started Mon Jan 17 14:32:12 2022


Gurobi 9.1.2 (mac64, C++) logging started Mon Jan 17 14:32:13 2022


Gurobi 9.1.2 (mac64, C++) logging started Mon Jan 17 15:02:38 2022


Gurobi 9.1.2 (mac64, C++) logging started Mon Jan 17 15:02:40 2022


Gurobi 9.1.2 (mac64, C++) logging started Mon Jan 17 15:33:06 2022


Gurobi 9.1.2 (mac64, C++) logging started Mon Jan 17 15:33:08 2022


Gurobi 9.1.2 (mac64, C++) logging started Sun Jan 23 08:48:11 2022


Gurobi 9.1.2 (mac64, C++) logging started Sun Jan 23 08:55:12 2022


Gurobi 9.1.2 (mac64, C++) logging started Sun Jan 23 09:06:43 2022


Gurobi 9.1.2 (mac64, C++) logging started Sun Jan 23 09:11:57 2022

